--- Job dynamic_calib Start 06/08/23 15:55:32 42.5.0 cf11b917 WEX-WEI x86 64bit/MS Windows
--- Applying:
    C:\GAMS\42\gmsprmNT.txt
--- GAMS Parameters defined
    Input h:\windc\github\windc_build\household\dynamic_calib.gms
    Output h:\windc\github\windc_build\household\lst\dynamic_calib_2016.lst
    ScrDir h:\windc\github\windc_build\household\225b\
    SysDir C:\GAMS\42\
    LogOption 4
    LogFile h:\windc\github\windc_build\household\lst\dynamic_calib_2016.log
    --year 2016
Licensee: Small MUD - 5 User License                     G230511|0002AO-GEN
          University of Wisconsin-Madison, Agricultural & Applied EconDC289
          C:\Users\Thomas F. Rutherford\Documents\GAMS\gamslice.txt
          License Admin: Thomas F. Rutherford, rutherford@aae.wisc.edu     
Processor information: 1 socket(s), 12 core(s), and 24 thread(s) available
GAMS 42.5.0   Copyright (C) 1987-2023 GAMS Development. All rights reserved
--- Starting compilation
--- dynamic_calib.gms(30) 2 Mb
--- . windc_coredata.gms(17) 2 Mb
--- GDXin=h:\windc\github\windc_build\core\WiNDCdatabase.gdx
--- GDX File ($gdxIn) h:\windc\github\windc_build\core\WiNDCdatabase.gdx
--- . windc_coredata.gms(209) 202 Mb
--- dynamic_calib.gms(39) 202 Mb
--- GDXin=h:\windc\github\windc_build\household\gdx\capital_tax_rates.gdx
--- GDX File ($gdxIn) h:\windc\github\windc_build\household\gdx\capital_tax_rates.gdx
--- dynamic_calib.gms(59) 202 Mb
--- GDXin=h:\windc\github\windc_build\household\gdx\i0_2016.gdx
--- GDX File ($gdxIn) h:\windc\github\windc_build\household\gdx\i0_2016.gdx
--- dynamic_calib.gms(298) 202 Mb
--- Starting execution: elapsed 0:00:00.536
--- dynamic_calib.gms(238) 219 Mb
--- GDX File (execute_unload) h:\windc\github\windc_build\household\225b\totgdp.gdx
--- dynamic_calib.gms(239) 219 Mb
--- dynamic_calib.gms(437) 233 Mb
--- Generating QCP model sscalib
--- dynamic_calib.gms(438) 386 Mb
---   21,849 rows  543,151 columns  1,625,830 non-zeroes
---   1,186,238 nl-code  237,245 nl-non-zeroes
--- Range statistics (absolute non-zero finite values)
--- RHS       [min, max] : [ 1.051E-24, 8.192E+02] - Zero values observed as well
--- Bound     [min, max] : [ 2.910E-18, 1.872E+02] - Zero values observed as well
--- Matrix    [min, max] : [ 1.000E+00, 1.000E+00] - Zero values observed as well
--- dynamic_calib.gms(438) 367 Mb
--- Executing CPLEX (Solvelink=2): elapsed 0:00:10.199

IBM ILOG CPLEX   42.5.0 cf11b917 Mar 30, 2023          WEI x86 64bit/MS Window

--- GAMS/Cplex licensed for continuous and discrete problems.
--- GMO Q Extraction (ThreePass): 1.69s
--- GMO setup time: 1.70s
--- Space for names approximately 13.86 Mb
--- Use option 'names no' to turn use of names off
--- GMO memory 192.48 Mb (peak 200.24 Mb)
--- Dictionary memory 0.00 Mb
--- Cplex 22.1.1.0 link memory 10.61 Mb (peak 47.24 Mb)
--- Starting Cplex

Version identifier: 22.1.1.0 | 2022-11-27 | 9160aff4d
CPXPARAM_Advance                                 0
CPXPARAM_Threads                                 1
CPXPARAM_MIP_Display                             4
CPXPARAM_MIP_Pool_Capacity                       0
CPXPARAM_MIP_Tolerances_AbsMIPGap                0
Tried aggregator 1 time.
QP Presolve eliminated 51 rows and 3622 columns.
Aggregator did 399 substitutions.
Reduced QP has 21398 rows, 539130 columns, and 1074639 nonzeros.
Reduced QP objective Q matrix has 235634 nonzeros.
Presolve time = 0.28 sec. (176.71 ticks)
Parallel mode: none, using 1 thread for barrier
Number of nonzeros in lower triangle of A*A' = 535509
Using Approximate Minimum Degree ordering
Total time for automatic ordering = 0.02 sec. (31.29 ticks)
Summary statistics for Cholesky factor:
  Rows in Factor            = 21398
  Integer space required    = 292938
  Total non-zeros in factor = 980856
  Total FP ops to factor    = 83873002
 Itn      Primal Obj        Dual Obj  Prim Inf Upper Inf  Dual Inf          
   0   3.0293359e+14  -3.0293358e+14  2.57e+07  0.00e+00  1.22e+13
   1   1.1084263e+14  -1.1084262e+14  1.55e+07  0.00e+00  7.40e+12
   2   5.1899048e+13  -5.1899041e+13  1.06e+07  0.00e+00  5.07e+12
   3   1.6548951e+13  -1.6548945e+13  6.00e+06  0.00e+00  2.86e+12
   4   6.3403167e+12  -6.3403106e+12  3.71e+06  0.00e+00  1.77e+12
   5   1.3982721e+12  -1.3982679e+12  1.74e+06  0.00e+00  8.32e+11
   6   8.1799185e+11  -8.1798787e+11  1.33e+06  0.00e+00  6.36e+11
   7   1.5133345e+11  -1.5133026e+11  5.73e+05  0.00e+00  2.74e+11
   8   5.4300583e+10  -5.4298140e+10  3.43e+05  0.00e+00  1.64e+11
   9   1.1964427e+10  -1.1962939e+10  1.61e+05  0.00e+00  7.69e+10
  10   1.4403294e+09  -1.4396632e+09  5.59e+04  0.00e+00  2.67e+10
  11   6.0212227e+08  -6.0160442e+08  3.61e+04  0.00e+00  1.72e+10
  12   1.8247245e+08  -1.8206032e+08  1.99e+04  0.00e+00  9.49e+09
  13   3.0454989e+07  -3.0234266e+07  8.10e+03  0.00e+00  3.86e+09
  14   4.0157200e+06  -3.9367232e+06  2.92e+03  0.00e+00  1.39e+09
  15   1.8332408e+06  -1.7803024e+06  1.96e+03  0.00e+00  9.35e+08
  16   6.7619729e+05  -6.4451735e+05  1.18e+03  0.00e+00  5.61e+08
  17   2.1835906e+05  -2.0075708e+05  6.54e+02  0.00e+00  3.12e+08
  18   9.9593169e+04  -8.7980746e+04  4.31e+02  0.00e+00  2.06e+08
  19   4.2134257e+04  -3.4882701e+04  2.69e+02  0.00e+00  1.29e+08
  20   1.3520132e+04  -9.7561064e+03  1.40e+02  0.00e+00  6.68e+07
  21   6.9768359e+03  -4.4702136e+03  9.33e+01  0.00e+00  4.45e+07
  22   2.8213469e+03  -1.4484425e+03  5.11e+01  0.00e+00  2.44e+07
  23   1.4097097e+03  -5.8027581e+02  3.09e+01  0.00e+00  1.47e+07
  24   7.7496342e+02  -2.5594498e+02  1.94e+01  0.00e+00  9.23e+06
  25   4.0212577e+02  -1.0322415e+02  1.12e+01  0.00e+00  5.33e+06
  26   1.9867465e+02  -3.9713207e+01  5.95e+00  0.00e+00  2.84e+06
  27   1.2261400e+02  -2.0949679e+01  3.81e+00  0.00e+00  1.82e+06
  28   6.5678856e+01  -9.5828641e+00  2.11e+00  0.00e+00  1.00e+06
  29   4.3092009e+01  -5.7122769e+00  1.40e+00  0.00e+00  6.70e+05
  30   2.2901835e+01  -2.7545449e+00  7.59e-01  0.00e+00  3.62e+05
  31   1.2912068e+01  -1.4448291e+00  4.33e-01  0.00e+00  2.07e+05
  32   7.0731778e+00  -7.4832165e-01  2.39e-01  0.00e+00  1.14e+05
  33   4.0283393e+00  -4.0606315e-01  1.37e-01  0.00e+00  6.55e+04
  34   2.7543786e+00  -2.6594312e-01  9.44e-02  0.00e+00  4.50e+04
  35   1.3044001e+00  -1.2150822e-01  4.49e-02  0.00e+00  2.14e+04
  36   5.8518847e-01  -5.2031339e-02  2.02e-02  0.00e+00  9.64e+03
  37   2.4131828e-01  -1.9253949e-02  8.30e-03  0.00e+00  3.96e+03
  38   1.0941059e-01  -6.3825214e-03  3.71e-03  0.00e+00  1.77e+03
  39   3.9565806e-02   3.6273822e-04  1.25e-03  0.00e+00  5.99e+02
  40   1.7573535e-02   2.6246540e-03  4.80e-04  0.00e+00  2.29e+02
  41   8.5302983e-03   3.5803744e-03  1.59e-04  0.00e+00  7.58e+01
  42   5.6187516e-03   3.9044429e-03  5.51e-05  0.00e+00  2.63e+01
  43   4.5998228e-03   4.0218440e-03  1.86e-05  0.00e+00  8.87e+00
  44   4.2125739e-03   4.0675945e-03  4.66e-06  0.00e+00  2.22e+00
  45   4.1104354e-03   4.0802174e-03  9.68e-07  0.00e+00  4.62e-01
  46   4.0854197e-03   4.0834439e-03  6.18e-08  0.00e+00  2.95e-02
  47   4.0837424e-03   4.0836966e-03  1.29e-09  0.00e+00  6.02e-04

Warning:  Barrier optimality criterion affected by large objective shift.
Barrier time = 3.05 sec. (8012.55 ticks)

Total time on 1 threads = 3.05 sec. (8012.55 ticks)

--- QP status (1): optimal.
--- Cplex Time: 3.05sec (det. 8012.55 ticks)


Optimal solution found
Objective:            0.004084

--- Reading solution for model sscalib
--- Executing after solve: elapsed 0:00:24.140
--- dynamic_calib.gms(506) 372 Mb
--- GDX File (execute_unload) h:\windc\github\windc_build\household\gdx\dynamic_parameters_2016.gdx
*** Status: Normal completion
--- Job dynamic_calib.gms Stop 06/08/23 15:55:58 elapsed 0:00:26.423
